words_hard_train/5725.qaiger
aag 157 24 0 1 133
2
4
8
12
14
18
30
42
52
54
62
64
68
72
76
80
84
94
102
118
134
150
166
182
315
6 3 5
10 6 8
16 13 15
20 16 19
22 10 20
24 20 9
26 24 3
28 26 5
32 29 30
34 28 31
36 33 35
38 22 36
40 39 35
44 41 43
46 40 42
48 45 47
50 49 39
56 52 54
58 53 55
60 57 59
66 63 65
70 66 69
74 70 73
78 74 77
82 78 81
86 82 85
88 60 87
90 61 86
92 89 91
96 94 62
98 62 64
100 99 67
104 101 103
106 100 102
108 105 107
110 96 108
112 111 107
114 67 68
116 115 71
120 117 119
122 116 118
124 121 123
126 113 124
128 127 123
130 71 72
132 131 75
136 133 135
138 132 134
140 137 139
142 129 140
144 143 139
146 75 76
148 147 79
152 149 151
154 148 150
156 153 155
158 145 156
160 159 155
162 79 80
164 163 83
168 165 167
170 164 166
172 169 171
174 161 172
176 175 171
178 83 84
180 179 87
184 181 183
186 180 182
188 185 187
190 177 188
192 191 187
194 93 193
196 92 192
198 195 197
200 9 19
202 200 13
204 203 14
206 205 25
208 112 125
210 209 127
212 95 63
214 213 9
216 215 97
218 8 18
220 219 201
222 216 220
224 223 111
226 217 221
228 227 109
230 224 229
232 201 12
234 233 203
236 230 235
238 211 237
240 231 234
242 239 241
244 206 243
246 207 242
248 128 141
250 249 143
252 247 251
254 245 253
256 25 2
258 257 27
260 144 157
262 261 159
264 259 262
266 255 265
268 258 263
270 267 269
272 27 4
274 273 29
276 160 173
278 277 175
280 275 278
282 271 281
284 274 279
286 283 285
288 176 189
290 289 191
292 290 37
294 287 293
296 291 36
298 295 297
300 198 298
302 50 301
304 48 38
306 300 304
308 303 307
310 199 305
312 310 299
314 308 313
i0 2 y1[4]
i1 2 y1[5]
i2 2 y1[0]
i3 2 y1[2]
i4 2 y1[3]
i5 2 y1[1]
i6 2 y1[6]
i7 2 y1[7]
i8 2 y2[7]
i9 1 x1[7]
i10 1 x1[0]
i11 1 x1[1]
i12 1 x1[2]
i13 1 x1[3]
i14 1 x1[4]
i15 1 x1[5]
i16 1 x1[6]
i17 2 y2[0]
i18 2 y2[1]
i19 2 y2[2]
i20 2 y2[3]
i21 2 y2[4]
i22 2 y2[5]
i23 2 y2[6]
o0 bv[0]
c
simplified
  >
    add
      unary minus
        2 y1
      1
    subtract
      2 y2
      1 x1
