words_hard_train/5725.qaiger.qdimacs
p cnf 157 400
a 32 34 36 38 40 42 27 31 0
e 1 2 3 4 5 6 7 8 9 10 11 12 13 14 15 16 17 18 19 20 21 22 23 24 25 26 28 29 30 33 35 37 39 41 43 44 45 46 47 48 49 50 51 52 53 54 55 56 57 58 59 60 61 62 63 64 65 66 67 68 69 70 71 72 73 74 75 76 77 78 79 80 81 82 83 84 85 86 87 88 89 90 91 92 93 94 95 96 97 98 99 100 101 102 103 104 105 106 107 108 109 110 111 112 113 114 115 116 117 118 119 120 121 122 123 124 125 126 127 128 129 130 131 132 133 134 135 136 137 138 139 140 141 142 143 144 145 146 147 148 149 150 151 152 153 154 155 156 157 0
1 2 3 0
-1 -3 0
-2 -3 0
-3 -4 5 0
3 -5 0
4 -5 0
6 7 8 0
-6 -8 0
-7 -8 0
-8 9 10 0
8 -10 0
-9 -10 0
-5 -10 11 0
5 -11 0
10 -11 0
-10 4 12 0
10 -12 0
-4 -12 0
-12 1 13 0
12 -13 0
-1 -13 0
-13 2 14 0
13 -14 0
-2 -14 0
14 -15 16 0
-14 -16 0
15 -16 0
-14 15 17 0
14 -17 0
-15 -17 0
16 17 18 0
-16 -18 0
-17 -18 0
-11 -18 19 0
11 -19 0
18 -19 0
19 17 20 0
-19 -20 0
-17 -20 0
20 21 22 0
-20 -22 0
-21 -22 0
-20 -21 23 0
20 -23 0
21 -23 0
22 23 24 0
-22 -24 0
-23 -24 0
24 19 25 0
-24 -25 0
-19 -25 0
-26 -27 28 0
26 -28 0
27 -28 0
26 27 29 0
-26 -29 0
-27 -29 0
28 29 30 0
-28 -30 0
-29 -30 0
31 32 33 0
-31 -33 0
-32 -33 0
-33 34 35 0
33 -35 0
-34 -35 0
-35 36 37 0
35 -37 0
-36 -37 0
-37 38 39 0
37 -39 0
-38 -39 0
-39 40 41 0
39 -41 0
-40 -41 0
-41 42 43 0
41 -43 0
-42 -43 0
-30 43 44 0
30 -44 0
-43 -44 0
30 -43 45 0
-30 -45 0
43 -45 0
44 45 46 0
-44 -46 0
-45 -46 0
-47 -31 48 0
47 -48 0
31 -48 0
-31 -32 49 0
31 -49 0
32 -49 0
49 33 50 0
-49 -50 0
-33 -50 0
50 51 52 0
-50 -52 0
-51 -52 0
-50 -51 53 0
50 -53 0
51 -53 0
52 53 54 0
-52 -54 0
-53 -54 0
-48 -54 55 0
48 -55 0
54 -55 0
55 53 56 0
-55 -56 0
-53 -56 0
33 -34 57 0
-33 -57 0
34 -57 0
57 35 58 0
-57 -58 0
-35 -58 0
58 59 60 0
-58 -60 0
-59 -60 0
-58 -59 61 0
58 -61 0
59 -61 0
60 61 62 0
-60 -62 0
-61 -62 0
56 -62 63 0
-56 -63 0
62 -63 0
63 61 64 0
-63 -64 0
-61 -64 0
35 -36 65 0
-35 -65 0
36 -65 0
65 37 66 0
-65 -66 0
-37 -66 0
66 67 68 0
-66 -68 0
-67 -68 0
-66 -67 69 0
66 -69 0
67 -69 0
68 69 70 0
-68 -70 0
-69 -70 0
64 -70 71 0
-64 -71 0
70 -71 0
71 69 72 0
-71 -72 0
-69 -72 0
37 -38 73 0
-37 -73 0
38 -73 0
73 39 74 0
-73 -74 0
-39 -74 0
74 75 76 0
-74 -76 0
-75 -76 0
-74 -75 77 0
74 -77 0
75 -77 0
76 77 78 0
-76 -78 0
-77 -78 0
72 -78 79 0
-72 -79 0
78 -79 0
79 77 80 0
-79 -80 0
-77 -80 0
39 -40 81 0
-39 -81 0
40 -81 0
81 41 82 0
-81 -82 0
-41 -82 0
82 83 84 0
-82 -84 0
-83 -84 0
-82 -83 85 0
82 -85 0
83 -85 0
84 85 86 0
-84 -86 0
-85 -86 0
80 -86 87 0
-80 -87 0
86 -87 0
87 85 88 0
-87 -88 0
-85 -88 0
41 -42 89 0
-41 -89 0
42 -89 0
89 43 90 0
-89 -90 0
-43 -90 0
90 91 92 0
-90 -92 0
-91 -92 0
-90 -91 93 0
90 -93 0
91 -93 0
92 93 94 0
-92 -94 0
-93 -94 0
88 -94 95 0
-88 -95 0
94 -95 0
95 93 96 0
-95 -96 0
-93 -96 0
46 96 97 0
-46 -97 0
-96 -97 0
-46 -96 98 0
46 -98 0
96 -98 0
97 98 99 0
-97 -99 0
-98 -99 0
4 9 100 0
-4 -100 0
-9 -100 0
-100 6 101 0
100 -101 0
-6 -101 0
101 -7 102 0
-101 -102 0
7 -102 0
102 12 103 0
-102 -103 0
-12 -103 0
-56 62 104 0
56 -104 0
-62 -104 0
104 63 105 0
-104 -105 0
-63 -105 0
47 31 106 0
-47 -106 0
-31 -106 0
106 4 107 0
-106 -107 0
-4 -107 0
107 48 108 0
-107 -108 0
-48 -108 0
-4 -9 109 0
4 -109 0
9 -109 0
109 100 110 0
-109 -110 0
-100 -110 0
-108 -110 111 0
108 -111 0
110 -111 0
111 55 112 0
-111 -112 0
-55 -112 0
108 110 113 0
-108 -113 0
-110 -113 0
113 54 114 0
-113 -114 0
-54 -114 0
-112 114 115 0
112 -115 0
-114 -115 0
100 -6 116 0
-100 -116 0
6 -116 0
116 101 117 0
-116 -117 0
-101 -117 0
-115 117 118 0
115 -118 0
-117 -118 0
105 118 119 0
-105 -119 0
-118 -119 0
115 -117 120 0
-115 -120 0
117 -120 0
119 120 121 0
-119 -121 0
-120 -121 0
-103 121 122 0
103 -122 0
-121 -122 0
103 -121 123 0
-103 -123 0
121 -123 0
-64 70 124 0
64 -124 0
-70 -124 0
124 71 125 0
-124 -125 0
-71 -125 0
123 125 126 0
-123 -126 0
-125 -126 0
122 126 127 0
-122 -127 0
-126 -127 0
12 -1 128 0
-12 -128 0
1 -128 0
128 13 129 0
-128 -129 0
-13 -129 0
-72 78 130 0
72 -130 0
-78 -130 0
130 79 131 0
-130 -131 0
-79 -131 0
129 -131 132 0
-129 -132 0
131 -132 0
127 132 133 0
-127 -133 0
-132 -133 0
-129 131 134 0
129 -134 0
-131 -134 0
133 134 135 0
-133 -135 0
-134 -135 0
13 -2 136 0
-13 -136 0
2 -136 0
136 14 137 0
-136 -137 0
-14 -137 0
-80 86 138 0
80 -138 0
-86 -138 0
138 87 139 0
-138 -139 0
-87 -139 0
137 -139 140 0
-137 -140 0
139 -140 0
135 140 141 0
-135 -141 0
-140 -141 0
-137 139 142 0
137 -142 0
-139 -142 0
141 142 143 0
-141 -143 0
-142 -143 0
-88 94 144 0
88 -144 0
-94 -144 0
144 95 145 0
-144 -145 0
-95 -145 0
-145 18 146 0
145 -146 0
-18 -146 0
143 146 147 0
-143 -147 0
-146 -147 0
145 -18 148 0
-145 -148 0
18 -148 0
147 148 149 0
-147 -149 0
-148 -149 0
-99 -149 150 0
99 -150 0
149 -150 0
-25 150 151 0
25 -151 0
-150 -151 0
-24 -19 152 0
24 -152 0
19 -152 0
-150 -152 153 0
150 -153 0
152 -153 0
151 153 154 0
-151 -154 0
-153 -154 0
99 152 155 0
-99 -155 0
-152 -155 0
-155 149 156 0
155 -156 0
-149 -156 0
-154 156 157 0
154 -157 0
-156 -157 0
-157 0
